Week_2_Quiz_Problem/week2quiz.sol
# Solution for model basic_model
# Objective value = 995000
C1 600
C2 300
T1 400
T2 200
S1 1400
S2 700
IC1 0
IT1 100
IC2 0
IT2 0
